% demand
num_movements = 24;
loading_factor = [850, 1700, 1800, 850, 1150, 850, 850, 1700, 1450, 900, 1200, 1650, 800, 1200, 1700, 1800, 1450, 1650, 1600, 1350, 1000, 950, 1850, 1700];
pickup_time = [0, 0, 0, 0, 0, 1, 1, 2, 2, 2, 2, 2, 3, 5, 5, 5, 6, 6, 6, 7, 7, 7, 7, 8];
delivery_time = [1, 1, 1, 1, 1, 2, 2, 6, 3, 5, 4, 5, 5, 6, 6, 6, 8, 7, 7, 10, 10, 10, 10, 10];

% transporter definition
total_capacity = 7000;
num_decks = 3;
capacity = [3000, 1000, 3000];

% ways out of decks
num_ways_out = 1;
paths_out = array3d(decks, ways_out, decks, [
% ways out of deck d1
2, 3, 0, 

% ways out of deck d2
3, 0, 0, 

% ways out of deck d3
0, 0, 0,	

]);

